120
150
58
32
100
57
83
89
48
45
61
79
43
66
46
56
70
26
38
32
79
51
64
70
53
76
86
45
39
22
64
55
46
35
58
87
87
24
48
27
82
29
62
48
43
48
58
20
29
72
75
53
79
89
51
48
39
93
79
71
93
81
28
57
48
22
86
79
69
22
64
37
65
87
48
76
46
29
83
52
76
100
21
67
95
93
35
39
22
50
26
20
100
100
57
85
79
48
64
71
72
78
53
29
50
58
79
100
39
34
93
37
57
50
59
65
26
51
54
64
45
86
